
(set-logic ALL) 

(declare-datatype MyList ((Nil) (Cons (head Real) (tail MyList)) )) 
(declare-fun l0 () MyList) 
(declare-fun l1 () MyList) 
(declare-fun l2 () MyList) 
(declare-fun l3 () MyList) 
(declare-fun i0 () Real) 
(declare-fun i1 () Real) 
(assert (= l0 l1) )
(assert (and (is-Nil Nil) (is-Cons Nil)) )
(assert (is-Nil Nil) )
(assert (is-Nil l3) )
(assert (not (is-Nil l0)) )
(assert (and (is-Nil Nil) (is-Cons Nil) (= l0 Nil)) )
(assert (is-Nil l1) )
(assert (and (= l3 Nil) (is-Nil Nil) (= l2 Nil)) )
(check-sat)
